p cnf 7230 18
3444 -6124 0
-3442 6120 -6124 0
-6125 -6126 0
3444 -6120 0
-3444 -3456 -5937 6123 0
-5873 -6005 -6121 0
5873 -6122 0
3442 -6120 0
3456 -6124 0
-6123 6124 0
6121 6122 0
6005 -6122 0
5937 -6124 0
-5875 -6007 6126 0
-6119 6120 0
6007 -6126 0
5875 -6126 0
6119 -6120 0
